WARNING: for repeatability, setting FPU to use double precision
============================[ Problem Statistics ]=============================
|                                                                             |
|  Number of variables:            12                                         |
|  Number of clauses:              36                                         |
|  Parse time:                   0.00 s                                       |
|                                                                             |
============================[ Search Statistics ]==============================
| Conflicts |          ORIGINAL         |          LEARNT          | Progress |
|           |    Vars  Clauses Literals |    Limit  Clauses Lit/Cl |          |
===============================================================================
===============================================================================
restarts              : 1
conflicts             : 2              (872 /sec)
decisions             : 1              (0.00 % random) (436 /sec)
propagations          : 16             (6975 /sec)
conflict literals     : 1              (0.00 % deleted)
Memory used           : 11.00 MB
CPU time              : 0.002294 s

UNSATISFIABLE
